; Benchmark for LTL-sketching problem
(set-logic QF_UF)
(set-info :status unknown)
(declare-fun z_0_0 () Bool)
(declare-fun z_0_11 () Bool)
(declare-fun z_0_19 () Bool)
(declare-fun z_0_30 () Bool)
(declare-fun z_0_34 () Bool)
(declare-fun z_0_38 () Bool)
(declare-fun z_0_41 () Bool)
(declare-fun z_0_42 () Bool)
(declare-fun z_0_46 () Bool)
(declare-fun z_0_56 () Bool)
(declare-fun z_0_67 () Bool)
(declare-fun z_0_71 () Bool)
(declare-fun z_0_77 () Bool)
(declare-fun z_0_84 () Bool)
(declare-fun z_0_91 () Bool)
(declare-fun z_0_93 () Bool)
(declare-fun z_0_97 () Bool)
(declare-fun z_0_109 () Bool)
(declare-fun z_0_117 () Bool)
(declare-fun z_0_126 () Bool)
(declare-fun z_0_131 () Bool)
(declare-fun z_0_137 () Bool)
(declare-fun z_0_146 () Bool)
(declare-fun z_0_149 () Bool)
(declare-fun z_0_161 () Bool)
(declare-fun z_0_164 () Bool)
(declare-fun z_2_10 () Bool)
(declare-fun z_2_9 () Bool)
(declare-fun z_2_8 () Bool)
(declare-fun z_2_7 () Bool)
(declare-fun z_2_6 () Bool)
(declare-fun z_2_5 () Bool)
(declare-fun z_2_4 () Bool)
(declare-fun z_2_3 () Bool)
(declare-fun z_2_2 () Bool)
(declare-fun z_2_1 () Bool)
(declare-fun z_2_0 () Bool)
(declare-fun z_0_1 () Bool)
(declare-fun z_0_2 () Bool)
(declare-fun z_0_3 () Bool)
(declare-fun z_0_4 () Bool)
(declare-fun z_0_5 () Bool)
(declare-fun z_0_6 () Bool)
(declare-fun z_0_7 () Bool)
(declare-fun z_0_8 () Bool)
(declare-fun z_0_9 () Bool)
(declare-fun z_0_10 () Bool)
(declare-fun z_2_18 () Bool)
(declare-fun z_2_17 () Bool)
(declare-fun z_2_16 () Bool)
(declare-fun z_2_15 () Bool)
(declare-fun z_2_14 () Bool)
(declare-fun z_2_13 () Bool)
(declare-fun z_2_12 () Bool)
(declare-fun z_2_11 () Bool)
(declare-fun z_0_12 () Bool)
(declare-fun z_0_13 () Bool)
(declare-fun z_0_14 () Bool)
(declare-fun z_0_15 () Bool)
(declare-fun z_0_16 () Bool)
(declare-fun z_0_17 () Bool)
(declare-fun z_0_18 () Bool)
(declare-fun z_2_29 () Bool)
(declare-fun z_2_28 () Bool)
(declare-fun z_2_27 () Bool)
(declare-fun z_2_26 () Bool)
(declare-fun z_2_25 () Bool)
(declare-fun z_2_24 () Bool)
(declare-fun z_2_23 () Bool)
(declare-fun z_2_22 () Bool)
(declare-fun z_2_21 () Bool)
(declare-fun z_2_20 () Bool)
(declare-fun z_2_19 () Bool)
(declare-fun z_0_20 () Bool)
(declare-fun z_0_21 () Bool)
(declare-fun z_0_22 () Bool)
(declare-fun z_0_23 () Bool)
(declare-fun z_0_24 () Bool)
(declare-fun z_0_25 () Bool)
(declare-fun z_0_26 () Bool)
(declare-fun z_0_27 () Bool)
(declare-fun z_0_28 () Bool)
(declare-fun z_0_29 () Bool)
(declare-fun z_2_33 () Bool)
(declare-fun z_2_32 () Bool)
(declare-fun z_2_31 () Bool)
(declare-fun z_2_30 () Bool)
(declare-fun z_0_31 () Bool)
(declare-fun z_0_32 () Bool)
(declare-fun z_0_33 () Bool)
(declare-fun z_2_37 () Bool)
(declare-fun z_2_36 () Bool)
(declare-fun z_2_35 () Bool)
(declare-fun z_2_34 () Bool)
(declare-fun z_0_35 () Bool)
(declare-fun z_0_36 () Bool)
(declare-fun z_0_37 () Bool)
(declare-fun z_2_41 () Bool)
(declare-fun z_2_40 () Bool)
(declare-fun z_2_39 () Bool)
(declare-fun z_2_38 () Bool)
(declare-fun z_0_39 () Bool)
(declare-fun z_0_40 () Bool)
(declare-fun z_2_45 () Bool)
(declare-fun z_2_44 () Bool)
(declare-fun z_2_43 () Bool)
(declare-fun z_2_42 () Bool)
(declare-fun z_0_43 () Bool)
(declare-fun z_0_44 () Bool)
(declare-fun z_0_45 () Bool)
(declare-fun z_2_55 () Bool)
(declare-fun z_2_54 () Bool)
(declare-fun z_2_53 () Bool)
(declare-fun z_2_52 () Bool)
(declare-fun z_2_51 () Bool)
(declare-fun z_2_50 () Bool)
(declare-fun z_2_49 () Bool)
(declare-fun z_2_48 () Bool)
(declare-fun z_2_47 () Bool)
(declare-fun z_2_46 () Bool)
(declare-fun z_0_47 () Bool)
(declare-fun z_0_48 () Bool)
(declare-fun z_0_49 () Bool)
(declare-fun z_0_50 () Bool)
(declare-fun z_0_51 () Bool)
(declare-fun z_0_52 () Bool)
(declare-fun z_0_53 () Bool)
(declare-fun z_0_54 () Bool)
(declare-fun z_0_55 () Bool)
(declare-fun z_2_66 () Bool)
(declare-fun z_2_65 () Bool)
(declare-fun z_2_64 () Bool)
(declare-fun z_2_63 () Bool)
(declare-fun z_2_62 () Bool)
(declare-fun z_2_61 () Bool)
(declare-fun z_2_60 () Bool)
(declare-fun z_2_59 () Bool)
(declare-fun z_2_58 () Bool)
(declare-fun z_2_57 () Bool)
(declare-fun z_2_56 () Bool)
(declare-fun z_0_57 () Bool)
(declare-fun z_0_58 () Bool)
(declare-fun z_0_59 () Bool)
(declare-fun z_0_60 () Bool)
(declare-fun z_0_61 () Bool)
(declare-fun z_0_62 () Bool)
(declare-fun z_0_63 () Bool)
(declare-fun z_0_64 () Bool)
(declare-fun z_0_65 () Bool)
(declare-fun z_0_66 () Bool)
(declare-fun z_2_70 () Bool)
(declare-fun z_2_69 () Bool)
(declare-fun z_2_68 () Bool)
(declare-fun z_2_67 () Bool)
(declare-fun z_0_68 () Bool)
(declare-fun z_0_69 () Bool)
(declare-fun z_0_70 () Bool)
(declare-fun z_2_76 () Bool)
(declare-fun z_2_75 () Bool)
(declare-fun z_2_74 () Bool)
(declare-fun z_2_73 () Bool)
(declare-fun z_2_72 () Bool)
(declare-fun z_2_71 () Bool)
(declare-fun z_0_72 () Bool)
(declare-fun z_0_73 () Bool)
(declare-fun z_0_74 () Bool)
(declare-fun z_0_75 () Bool)
(declare-fun z_0_76 () Bool)
(declare-fun z_2_83 () Bool)
(declare-fun z_2_82 () Bool)
(declare-fun z_2_81 () Bool)
(declare-fun z_2_80 () Bool)
(declare-fun z_2_79 () Bool)
(declare-fun z_2_78 () Bool)
(declare-fun z_2_77 () Bool)
(declare-fun z_0_78 () Bool)
(declare-fun z_0_79 () Bool)
(declare-fun z_0_80 () Bool)
(declare-fun z_0_81 () Bool)
(declare-fun z_0_82 () Bool)
(declare-fun z_0_83 () Bool)
(declare-fun z_2_92 () Bool)
(declare-fun z_2_91 () Bool)
(declare-fun z_2_90 () Bool)
(declare-fun z_2_89 () Bool)
(declare-fun z_2_88 () Bool)
(declare-fun z_2_87 () Bool)
(declare-fun z_2_86 () Bool)
(declare-fun z_2_85 () Bool)
(declare-fun z_2_84 () Bool)
(declare-fun z_0_85 () Bool)
(declare-fun z_0_86 () Bool)
(declare-fun z_0_87 () Bool)
(declare-fun z_0_88 () Bool)
(declare-fun z_0_89 () Bool)
(declare-fun z_0_90 () Bool)
(declare-fun z_0_92 () Bool)
(declare-fun z_2_96 () Bool)
(declare-fun z_2_95 () Bool)
(declare-fun z_2_94 () Bool)
(declare-fun z_2_93 () Bool)
(declare-fun z_0_94 () Bool)
(declare-fun z_0_95 () Bool)
(declare-fun z_0_96 () Bool)
(declare-fun z_2_108 () Bool)
(declare-fun z_2_107 () Bool)
(declare-fun z_2_106 () Bool)
(declare-fun z_2_105 () Bool)
(declare-fun z_2_104 () Bool)
(declare-fun z_2_103 () Bool)
(declare-fun z_2_102 () Bool)
(declare-fun z_2_101 () Bool)
(declare-fun z_2_100 () Bool)
(declare-fun z_2_99 () Bool)
(declare-fun z_2_98 () Bool)
(declare-fun z_2_97 () Bool)
(declare-fun z_0_98 () Bool)
(declare-fun z_0_99 () Bool)
(declare-fun z_0_100 () Bool)
(declare-fun z_0_101 () Bool)
(declare-fun z_0_102 () Bool)
(declare-fun z_0_103 () Bool)
(declare-fun z_0_104 () Bool)
(declare-fun z_0_105 () Bool)
(declare-fun z_0_106 () Bool)
(declare-fun z_0_107 () Bool)
(declare-fun z_0_108 () Bool)
(declare-fun z_2_116 () Bool)
(declare-fun z_2_115 () Bool)
(declare-fun z_2_114 () Bool)
(declare-fun z_2_113 () Bool)
(declare-fun z_2_112 () Bool)
(declare-fun z_2_111 () Bool)
(declare-fun z_2_110 () Bool)
(declare-fun z_2_109 () Bool)
(declare-fun z_0_110 () Bool)
(declare-fun z_0_111 () Bool)
(declare-fun z_0_112 () Bool)
(declare-fun z_0_113 () Bool)
(declare-fun z_0_114 () Bool)
(declare-fun z_0_115 () Bool)
(declare-fun z_0_116 () Bool)
(declare-fun z_2_125 () Bool)
(declare-fun z_2_124 () Bool)
(declare-fun z_2_123 () Bool)
(declare-fun z_2_122 () Bool)
(declare-fun z_2_121 () Bool)
(declare-fun z_2_120 () Bool)
(declare-fun z_2_119 () Bool)
(declare-fun z_2_118 () Bool)
(declare-fun z_2_117 () Bool)
(declare-fun z_0_118 () Bool)
(declare-fun z_0_119 () Bool)
(declare-fun z_0_120 () Bool)
(declare-fun z_0_121 () Bool)
(declare-fun z_0_122 () Bool)
(declare-fun z_0_123 () Bool)
(declare-fun z_0_124 () Bool)
(declare-fun z_0_125 () Bool)
(declare-fun z_2_130 () Bool)
(declare-fun z_2_129 () Bool)
(declare-fun z_2_128 () Bool)
(declare-fun z_2_127 () Bool)
(declare-fun z_2_126 () Bool)
(declare-fun z_0_127 () Bool)
(declare-fun z_0_128 () Bool)
(declare-fun z_0_129 () Bool)
(declare-fun z_0_130 () Bool)
(declare-fun z_2_136 () Bool)
(declare-fun z_2_135 () Bool)
(declare-fun z_2_134 () Bool)
(declare-fun z_2_133 () Bool)
(declare-fun z_2_132 () Bool)
(declare-fun z_2_131 () Bool)
(declare-fun z_0_132 () Bool)
(declare-fun z_0_133 () Bool)
(declare-fun z_0_134 () Bool)
(declare-fun z_0_135 () Bool)
(declare-fun z_0_136 () Bool)
(declare-fun z_2_145 () Bool)
(declare-fun z_2_144 () Bool)
(declare-fun z_2_143 () Bool)
(declare-fun z_2_142 () Bool)
(declare-fun z_2_141 () Bool)
(declare-fun z_2_140 () Bool)
(declare-fun z_2_139 () Bool)
(declare-fun z_2_138 () Bool)
(declare-fun z_2_137 () Bool)
(declare-fun z_0_138 () Bool)
(declare-fun z_0_139 () Bool)
(declare-fun z_0_140 () Bool)
(declare-fun z_0_141 () Bool)
(declare-fun z_0_142 () Bool)
(declare-fun z_0_143 () Bool)
(declare-fun z_0_144 () Bool)
(declare-fun z_0_145 () Bool)
(declare-fun z_2_148 () Bool)
(declare-fun z_2_147 () Bool)
(declare-fun z_2_146 () Bool)
(declare-fun z_0_147 () Bool)
(declare-fun z_0_148 () Bool)
(declare-fun z_2_160 () Bool)
(declare-fun z_2_159 () Bool)
(declare-fun z_2_158 () Bool)
(declare-fun z_2_157 () Bool)
(declare-fun z_2_156 () Bool)
(declare-fun z_2_155 () Bool)
(declare-fun z_2_154 () Bool)
(declare-fun z_2_153 () Bool)
(declare-fun z_2_152 () Bool)
(declare-fun z_2_151 () Bool)
(declare-fun z_2_150 () Bool)
(declare-fun z_2_149 () Bool)
(declare-fun z_0_150 () Bool)
(declare-fun z_0_151 () Bool)
(declare-fun z_0_152 () Bool)
(declare-fun z_0_153 () Bool)
(declare-fun z_0_154 () Bool)
(declare-fun z_0_155 () Bool)
(declare-fun z_0_156 () Bool)
(declare-fun z_0_157 () Bool)
(declare-fun z_0_158 () Bool)
(declare-fun z_0_159 () Bool)
(declare-fun z_0_160 () Bool)
(declare-fun z_2_163 () Bool)
(declare-fun z_2_162 () Bool)
(declare-fun z_2_161 () Bool)
(declare-fun z_0_162 () Bool)
(declare-fun z_0_163 () Bool)
(declare-fun z_2_164 () Bool)
(declare-fun x_2_p () Bool)
(declare-fun x_2_-> () Bool)
(declare-fun x_2_U () Bool)
(declare-fun x_2_v () Bool)
(declare-fun x_2_& () Bool)
(declare-fun x_2_X () Bool)
(declare-fun x_2_! () Bool)
(declare-fun x_2_F () Bool)
(declare-fun x_2_G () Bool)
(assert
 z_0_0)
(assert
 z_0_11)
(assert
 z_0_19)
(assert
 z_0_30)
(assert
 z_0_34)
(assert
 z_0_38)
(assert
 (not z_0_41))
(assert
 z_0_42)
(assert
 z_0_46)
(assert
 z_0_56)
(assert
 z_0_67)
(assert
 z_0_71)
(assert
 z_0_77)
(assert
 z_0_84)
(assert
 z_0_91)
(assert
 z_0_93)
(assert
 z_0_97)
(assert
 z_0_109)
(assert
 z_0_117)
(assert
 z_0_126)
(assert
 z_0_131)
(assert
 z_0_137)
(assert
 z_0_146)
(assert
 z_0_149)
(assert
 z_0_161)
(assert
 z_0_164)
(assert
 (let (($x2711 (or z_2_0 z_2_1 z_2_2 z_2_3 z_2_4 z_2_5 z_2_6 z_2_7 z_2_8 z_2_9 z_2_10)))
 (= z_0_0 $x2711)))
(assert
 (let (($x2713 (or z_2_1 z_2_2 z_2_3 z_2_4 z_2_5 z_2_6 z_2_7 z_2_8 z_2_9 z_2_10)))
 (= z_0_1 $x2713)))
(assert
 (let (($x2715 (or z_2_2 z_2_3 z_2_4 z_2_5 z_2_6 z_2_7 z_2_8 z_2_9 z_2_10)))
 (= z_0_2 $x2715)))
(assert
 (= z_0_3 (or z_2_3 z_2_4 z_2_5 z_2_6 z_2_7 z_2_8 z_2_9 z_2_10)))
(assert
 (= z_0_4 (or z_2_4 z_2_5 z_2_6 z_2_7 z_2_8 z_2_9 z_2_10)))
(assert
 (let (($x2721 (or z_2_5 z_2_6 z_2_7 z_2_8 z_2_9 z_2_10)))
 (= z_0_5 $x2721)))
(assert
 (= z_0_6 (or z_2_6 z_2_7 z_2_8 z_2_9 z_2_10 z_2_5)))
(assert
 (= z_0_7 (or z_2_7 z_2_8 z_2_9 z_2_10 z_2_5 z_2_6)))
(assert
 (= z_0_8 (or z_2_8 z_2_9 z_2_10 z_2_5 z_2_6 z_2_7)))
(assert
 (= z_0_9 (or z_2_9 z_2_10 z_2_5 z_2_6 z_2_7 z_2_8)))
(assert
 (= z_0_10 (or z_2_10 z_2_5 z_2_6 z_2_7 z_2_8 z_2_9)))
(assert
 (let (($x2745 (or z_2_11 z_2_12 z_2_13 z_2_14 z_2_15 z_2_16 z_2_17 z_2_18)))
 (= z_0_11 $x2745)))
(assert
 (= z_0_12 (or z_2_12 z_2_13 z_2_14 z_2_15 z_2_16 z_2_17 z_2_18)))
(assert
 (= z_0_13 (or z_2_13 z_2_14 z_2_15 z_2_16 z_2_17 z_2_18)))
(assert
 (let (($x2751 (or z_2_14 z_2_15 z_2_16 z_2_17 z_2_18)))
 (= z_0_14 $x2751)))
(assert
 (= z_0_15 (or z_2_15 z_2_16 z_2_17 z_2_18 z_2_14)))
(assert
 (= z_0_16 (or z_2_16 z_2_17 z_2_18 z_2_14 z_2_15)))
(assert
 (= z_0_17 (or z_2_17 z_2_18 z_2_14 z_2_15 z_2_16)))
(assert
 (= z_0_18 (or z_2_18 z_2_14 z_2_15 z_2_16 z_2_17)))
(assert
 (let (($x2776 (or z_2_19 z_2_20 z_2_21 z_2_22 z_2_23 z_2_24 z_2_25 z_2_26 z_2_27 z_2_28 z_2_29)))
 (= z_0_19 $x2776)))
(assert
 (let (($x2778 (or z_2_20 z_2_21 z_2_22 z_2_23 z_2_24 z_2_25 z_2_26 z_2_27 z_2_28 z_2_29)))
 (= z_0_20 $x2778)))
(assert
 (let (($x2780 (or z_2_21 z_2_22 z_2_23 z_2_24 z_2_25 z_2_26 z_2_27 z_2_28 z_2_29)))
 (= z_0_21 $x2780)))
(assert
 (let (($x2782 (or z_2_22 z_2_23 z_2_24 z_2_25 z_2_26 z_2_27 z_2_28 z_2_29)))
 (= z_0_22 $x2782)))
(assert
 (= z_0_23 (or z_2_23 z_2_24 z_2_25 z_2_26 z_2_27 z_2_28 z_2_29)))
(assert
 (let (($x2786 (or z_2_24 z_2_25 z_2_26 z_2_27 z_2_28 z_2_29)))
 (= z_0_24 $x2786)))
(assert
 (= z_0_25 (or z_2_25 z_2_26 z_2_27 z_2_28 z_2_29 z_2_24)))
(assert
 (= z_0_26 (or z_2_26 z_2_27 z_2_28 z_2_29 z_2_24 z_2_25)))
(assert
 (= z_0_27 (or z_2_27 z_2_28 z_2_29 z_2_24 z_2_25 z_2_26)))
(assert
 (= z_0_28 (or z_2_28 z_2_29 z_2_24 z_2_25 z_2_26 z_2_27)))
(assert
 (= z_0_29 (or z_2_29 z_2_24 z_2_25 z_2_26 z_2_27 z_2_28)))
(assert
 (let (($x2807 (or z_2_30 z_2_31 z_2_32 z_2_33 z_2_23 z_2_24 z_2_25 z_2_26 z_2_27 z_2_28 z_2_29)))
 (= z_0_30 $x2807)))
(assert
 (let (($x2811 (or z_2_31 z_2_32 z_2_33 z_2_23 z_2_24 z_2_25 z_2_26 z_2_27 z_2_28 z_2_29)))
 (= z_0_31 $x2811)))
(assert
 (let (($x2815 (or z_2_32 z_2_33 z_2_23 z_2_24 z_2_25 z_2_26 z_2_27 z_2_28 z_2_29)))
 (= z_0_32 $x2815)))
(assert
 (let (($x2819 (or z_2_33 z_2_23 z_2_24 z_2_25 z_2_26 z_2_27 z_2_28 z_2_29)))
 (= z_0_33 $x2819)))
(assert
 (let (($x2827 (or z_2_34 z_2_35 z_2_36 z_2_37 z_2_18 z_2_14 z_2_15 z_2_16 z_2_17)))
 (= z_0_34 $x2827)))
(assert
 (let (($x2831 (or z_2_35 z_2_36 z_2_37 z_2_18 z_2_14 z_2_15 z_2_16 z_2_17)))
 (= z_0_35 $x2831)))
(assert
 (= z_0_36 (or z_2_36 z_2_37 z_2_18 z_2_14 z_2_15 z_2_16 z_2_17)))
(assert
 (= z_0_37 (or z_2_37 z_2_18 z_2_14 z_2_15 z_2_16 z_2_17)))
(assert
 (= z_0_38 (or z_2_38 z_2_39 z_2_40 z_2_41)))
(assert
 (= z_0_39 (or z_2_39 z_2_40 z_2_41)))
(assert
 (= z_0_40 (or z_2_40 z_2_41)))
(assert
 (= z_0_41 (or z_2_41)))
(assert
 (let (($x2860 (or z_2_42 z_2_43 z_2_44 z_2_45 z_2_17 z_2_18 z_2_14 z_2_15 z_2_16)))
 (= z_0_42 $x2860)))
(assert
 (let (($x2864 (or z_2_43 z_2_44 z_2_45 z_2_17 z_2_18 z_2_14 z_2_15 z_2_16)))
 (= z_0_43 $x2864)))
(assert
 (= z_0_44 (or z_2_44 z_2_45 z_2_17 z_2_18 z_2_14 z_2_15 z_2_16)))
(assert
 (= z_0_45 (or z_2_45 z_2_17 z_2_18 z_2_14 z_2_15 z_2_16)))
(assert
 (let (($x2886 (or z_2_46 z_2_47 z_2_48 z_2_49 z_2_50 z_2_51 z_2_52 z_2_53 z_2_54 z_2_55)))
 (= z_0_46 $x2886)))
(assert
 (let (($x2888 (or z_2_47 z_2_48 z_2_49 z_2_50 z_2_51 z_2_52 z_2_53 z_2_54 z_2_55)))
 (= z_0_47 $x2888)))
(assert
 (let (($x2890 (or z_2_48 z_2_49 z_2_50 z_2_51 z_2_52 z_2_53 z_2_54 z_2_55)))
 (= z_0_48 $x2890)))
(assert
 (= z_0_49 (or z_2_49 z_2_50 z_2_51 z_2_52 z_2_53 z_2_54 z_2_55)))
(assert
 (= z_0_50 (or z_2_50 z_2_51 z_2_52 z_2_53 z_2_54 z_2_55)))
(assert
 (= z_0_51 (or z_2_51 z_2_52 z_2_53 z_2_54 z_2_55)))
(assert
 (let (($x2898 (or z_2_52 z_2_53 z_2_54 z_2_55)))
 (= z_0_52 $x2898)))
(assert
 (= z_0_53 (or z_2_53 z_2_54 z_2_55 z_2_52)))
(assert
 (= z_0_54 (or z_2_54 z_2_55 z_2_52 z_2_53)))
(assert
 (= z_0_55 (or z_2_55 z_2_52 z_2_53 z_2_54)))
(assert
 (let (($x2920 (or z_2_56 z_2_57 z_2_58 z_2_59 z_2_60 z_2_61 z_2_62 z_2_63 z_2_64 z_2_65 z_2_66)))
 (= z_0_56 $x2920)))
(assert
 (let (($x2922 (or z_2_57 z_2_58 z_2_59 z_2_60 z_2_61 z_2_62 z_2_63 z_2_64 z_2_65 z_2_66)))
 (= z_0_57 $x2922)))
(assert
 (let (($x2924 (or z_2_58 z_2_59 z_2_60 z_2_61 z_2_62 z_2_63 z_2_64 z_2_65 z_2_66)))
 (= z_0_58 $x2924)))
(assert
 (let (($x2926 (or z_2_59 z_2_60 z_2_61 z_2_62 z_2_63 z_2_64 z_2_65 z_2_66)))
 (= z_0_59 $x2926)))
(assert
 (= z_0_60 (or z_2_60 z_2_61 z_2_62 z_2_63 z_2_64 z_2_65 z_2_66)))
(assert
 (let (($x2930 (or z_2_61 z_2_62 z_2_63 z_2_64 z_2_65 z_2_66)))
 (= z_0_61 $x2930)))
(assert
 (= z_0_62 (or z_2_62 z_2_63 z_2_64 z_2_65 z_2_66 z_2_61)))
(assert
 (= z_0_63 (or z_2_63 z_2_64 z_2_65 z_2_66 z_2_61 z_2_62)))
(assert
 (= z_0_64 (or z_2_64 z_2_65 z_2_66 z_2_61 z_2_62 z_2_63)))
(assert
 (= z_0_65 (or z_2_65 z_2_66 z_2_61 z_2_62 z_2_63 z_2_64)))
(assert
 (= z_0_66 (or z_2_66 z_2_61 z_2_62 z_2_63 z_2_64 z_2_65)))
(assert
 (let (($x2951 (or z_2_67 z_2_68 z_2_69 z_2_70 z_2_54 z_2_55 z_2_52 z_2_53)))
 (= z_0_67 $x2951)))
(assert
 (= z_0_68 (or z_2_68 z_2_69 z_2_70 z_2_54 z_2_55 z_2_52 z_2_53)))
(assert
 (= z_0_69 (or z_2_69 z_2_70 z_2_54 z_2_55 z_2_52 z_2_53)))
(assert
 (= z_0_70 (or z_2_70 z_2_54 z_2_55 z_2_52 z_2_53)))
(assert
 (= z_0_71 (or z_2_71 z_2_72 z_2_73 z_2_74 z_2_75 z_2_76)))
(assert
 (let (($x2975 (or z_2_72 z_2_73 z_2_74 z_2_75 z_2_76)))
 (= z_0_72 $x2975)))
(assert
 (= z_0_73 (or z_2_73 z_2_74 z_2_75 z_2_76 z_2_72)))
(assert
 (= z_0_74 (or z_2_74 z_2_75 z_2_76 z_2_72 z_2_73)))
(assert
 (= z_0_75 (or z_2_75 z_2_76 z_2_72 z_2_73 z_2_74)))
(assert
 (= z_0_76 (or z_2_76 z_2_72 z_2_73 z_2_74 z_2_75)))
(assert
 (= z_0_77 (or z_2_77 z_2_78 z_2_79 z_2_80 z_2_81 z_2_82 z_2_83)))
(assert
 (let (($x2998 (or z_2_78 z_2_79 z_2_80 z_2_81 z_2_82 z_2_83)))
 (= z_0_78 $x2998)))
(assert
 (= z_0_79 (or z_2_79 z_2_80 z_2_81 z_2_82 z_2_83 z_2_78)))
(assert
 (= z_0_80 (or z_2_80 z_2_81 z_2_82 z_2_83 z_2_78 z_2_79)))
(assert
 (= z_0_81 (or z_2_81 z_2_82 z_2_83 z_2_78 z_2_79 z_2_80)))
(assert
 (= z_0_82 (or z_2_82 z_2_83 z_2_78 z_2_79 z_2_80 z_2_81)))
(assert
 (= z_0_83 (or z_2_83 z_2_78 z_2_79 z_2_80 z_2_81 z_2_82)))
(assert
 (let (($x3024 (or z_2_84 z_2_85 z_2_86 z_2_87 z_2_88 z_2_89 z_2_90 z_2_91 z_2_92)))
 (= z_0_84 $x3024)))
(assert
 (let (($x3026 (or z_2_85 z_2_86 z_2_87 z_2_88 z_2_89 z_2_90 z_2_91 z_2_92)))
 (= z_0_85 $x3026)))
(assert
 (= z_0_86 (or z_2_86 z_2_87 z_2_88 z_2_89 z_2_90 z_2_91 z_2_92)))
(assert
 (= z_0_87 (or z_2_87 z_2_88 z_2_89 z_2_90 z_2_91 z_2_92)))
(assert
 (= z_0_88 (or z_2_88 z_2_89 z_2_90 z_2_91 z_2_92)))
(assert
 (let (($x3034 (or z_2_89 z_2_90 z_2_91 z_2_92)))
 (= z_0_89 $x3034)))
(assert
 (= z_0_90 (or z_2_90 z_2_91 z_2_92 z_2_89)))
(assert
 (= z_0_91 (or z_2_91 z_2_92 z_2_89 z_2_90)))
(assert
 (= z_0_92 (or z_2_92 z_2_89 z_2_90 z_2_91)))
(assert
 (let (($x3049 (or z_2_93 z_2_94 z_2_95 z_2_96 z_2_71 z_2_72 z_2_73 z_2_74 z_2_75 z_2_76)))
 (= z_0_93 $x3049)))
(assert
 (let (($x3053 (or z_2_94 z_2_95 z_2_96 z_2_71 z_2_72 z_2_73 z_2_74 z_2_75 z_2_76)))
 (= z_0_94 $x3053)))
(assert
 (let (($x3057 (or z_2_95 z_2_96 z_2_71 z_2_72 z_2_73 z_2_74 z_2_75 z_2_76)))
 (= z_0_95 $x3057)))
(assert
 (= z_0_96 (or z_2_96 z_2_71 z_2_72 z_2_73 z_2_74 z_2_75 z_2_76)))
(assert
 (let (($x3077 (or z_2_97 z_2_98 z_2_99 z_2_100 z_2_101 z_2_102 z_2_103 z_2_104 z_2_105 z_2_106 z_2_107 z_2_108)))
 (= z_0_97 $x3077)))
(assert
 (let (($x3079 (or z_2_98 z_2_99 z_2_100 z_2_101 z_2_102 z_2_103 z_2_104 z_2_105 z_2_106 z_2_107 z_2_108)))
 (= z_0_98 $x3079)))
(assert
 (let (($x3081 (or z_2_99 z_2_100 z_2_101 z_2_102 z_2_103 z_2_104 z_2_105 z_2_106 z_2_107 z_2_108)))
 (= z_0_99 $x3081)))
(assert
 (let (($x3083 (or z_2_100 z_2_101 z_2_102 z_2_103 z_2_104 z_2_105 z_2_106 z_2_107 z_2_108)))
 (= z_0_100 $x3083)))
(assert
 (let (($x3085 (or z_2_101 z_2_102 z_2_103 z_2_104 z_2_105 z_2_106 z_2_107 z_2_108)))
 (= z_0_101 $x3085)))
(assert
 (let (($x3087 (or z_2_102 z_2_103 z_2_104 z_2_105 z_2_106 z_2_107 z_2_108)))
 (= z_0_102 $x3087)))
(assert
 (let (($x3089 (or z_2_103 z_2_104 z_2_105 z_2_106 z_2_107 z_2_108)))
 (= z_0_103 $x3089)))
(assert
 (= z_0_104 (or z_2_104 z_2_105 z_2_106 z_2_107 z_2_108 z_2_103)))
(assert
 (= z_0_105 (or z_2_105 z_2_106 z_2_107 z_2_108 z_2_103 z_2_104)))
(assert
 (= z_0_106 (or z_2_106 z_2_107 z_2_108 z_2_103 z_2_104 z_2_105)))
(assert
 (= z_0_107 (or z_2_107 z_2_108 z_2_103 z_2_104 z_2_105 z_2_106)))
(assert
 (= z_0_108 (or z_2_108 z_2_103 z_2_104 z_2_105 z_2_106 z_2_107)))
(assert
 (let (($x3114 (or z_2_109 z_2_110 z_2_111 z_2_112 z_2_113 z_2_114 z_2_115 z_2_116)))
 (= z_0_109 $x3114)))
(assert
 (let (($x3116 (or z_2_110 z_2_111 z_2_112 z_2_113 z_2_114 z_2_115 z_2_116)))
 (= z_0_110 $x3116)))
(assert
 (= z_0_111 (or z_2_111 z_2_112 z_2_113 z_2_114 z_2_115 z_2_116)))
(assert
 (= z_0_112 (or z_2_112 z_2_113 z_2_114 z_2_115 z_2_116)))
(assert
 (let (($x3122 (or z_2_113 z_2_114 z_2_115 z_2_116)))
 (= z_0_113 $x3122)))
(assert
 (= z_0_114 (or z_2_114 z_2_115 z_2_116 z_2_113)))
(assert
 (= z_0_115 (or z_2_115 z_2_116 z_2_113 z_2_114)))
(assert
 (= z_0_116 (or z_2_116 z_2_113 z_2_114 z_2_115)))
(assert
 (let (($x3142 (or z_2_117 z_2_118 z_2_119 z_2_120 z_2_121 z_2_122 z_2_123 z_2_124 z_2_125)))
 (= z_0_117 $x3142)))
(assert
 (let (($x3144 (or z_2_118 z_2_119 z_2_120 z_2_121 z_2_122 z_2_123 z_2_124 z_2_125)))
 (= z_0_118 $x3144)))
(assert
 (let (($x3146 (or z_2_119 z_2_120 z_2_121 z_2_122 z_2_123 z_2_124 z_2_125)))
 (= z_0_119 $x3146)))
(assert
 (let (($x3148 (or z_2_120 z_2_121 z_2_122 z_2_123 z_2_124 z_2_125)))
 (= z_0_120 $x3148)))
(assert
 (= z_0_121 (or z_2_121 z_2_122 z_2_123 z_2_124 z_2_125 z_2_120)))
(assert
 (= z_0_122 (or z_2_122 z_2_123 z_2_124 z_2_125 z_2_120 z_2_121)))
(assert
 (= z_0_123 (or z_2_123 z_2_124 z_2_125 z_2_120 z_2_121 z_2_122)))
(assert
 (= z_0_124 (or z_2_124 z_2_125 z_2_120 z_2_121 z_2_122 z_2_123)))
(assert
 (= z_0_125 (or z_2_125 z_2_120 z_2_121 z_2_122 z_2_123 z_2_124)))
(assert
 (let (($x3170 (or z_2_126 z_2_127 z_2_128 z_2_129 z_2_130 z_2_25 z_2_26 z_2_27 z_2_28 z_2_29 z_2_24)))
 (= z_0_126 $x3170)))
(assert
 (let (($x3174 (or z_2_127 z_2_128 z_2_129 z_2_130 z_2_25 z_2_26 z_2_27 z_2_28 z_2_29 z_2_24)))
 (= z_0_127 $x3174)))
(assert
 (let (($x3178 (or z_2_128 z_2_129 z_2_130 z_2_25 z_2_26 z_2_27 z_2_28 z_2_29 z_2_24)))
 (= z_0_128 $x3178)))
(assert
 (let (($x3182 (or z_2_129 z_2_130 z_2_25 z_2_26 z_2_27 z_2_28 z_2_29 z_2_24)))
 (= z_0_129 $x3182)))
(assert
 (= z_0_130 (or z_2_130 z_2_25 z_2_26 z_2_27 z_2_28 z_2_29 z_2_24)))
(assert
 (let (($x3196 (or z_2_131 z_2_132 z_2_133 z_2_134 z_2_135 z_2_136 z_2_114 z_2_115 z_2_116 z_2_113)))
 (= z_0_131 $x3196)))
(assert
 (let (($x3200 (or z_2_132 z_2_133 z_2_134 z_2_135 z_2_136 z_2_114 z_2_115 z_2_116 z_2_113)))
 (= z_0_132 $x3200)))
(assert
 (let (($x3204 (or z_2_133 z_2_134 z_2_135 z_2_136 z_2_114 z_2_115 z_2_116 z_2_113)))
 (= z_0_133 $x3204)))
(assert
 (let (($x3208 (or z_2_134 z_2_135 z_2_136 z_2_114 z_2_115 z_2_116 z_2_113)))
 (= z_0_134 $x3208)))
(assert
 (= z_0_135 (or z_2_135 z_2_136 z_2_114 z_2_115 z_2_116 z_2_113)))
(assert
 (= z_0_136 (or z_2_136 z_2_114 z_2_115 z_2_116 z_2_113)))
(assert
 (let (($x3229 (or z_2_137 z_2_138 z_2_139 z_2_140 z_2_141 z_2_142 z_2_143 z_2_144 z_2_145 z_2_91 z_2_92 z_2_89 z_2_90)))
 (= z_0_137 $x3229)))
(assert
 (let (($x3233 (or z_2_138 z_2_139 z_2_140 z_2_141 z_2_142 z_2_143 z_2_144 z_2_145 z_2_91 z_2_92 z_2_89 z_2_90)))
 (= z_0_138 $x3233)))
(assert
 (let (($x3237 (or z_2_139 z_2_140 z_2_141 z_2_142 z_2_143 z_2_144 z_2_145 z_2_91 z_2_92 z_2_89 z_2_90)))
 (= z_0_139 $x3237)))
(assert
 (let (($x3241 (or z_2_140 z_2_141 z_2_142 z_2_143 z_2_144 z_2_145 z_2_91 z_2_92 z_2_89 z_2_90)))
 (= z_0_140 $x3241)))
(assert
 (let (($x3245 (or z_2_141 z_2_142 z_2_143 z_2_144 z_2_145 z_2_91 z_2_92 z_2_89 z_2_90)))
 (= z_0_141 $x3245)))
(assert
 (let (($x3249 (or z_2_142 z_2_143 z_2_144 z_2_145 z_2_91 z_2_92 z_2_89 z_2_90)))
 (= z_0_142 $x3249)))
(assert
 (= z_0_143 (or z_2_143 z_2_144 z_2_145 z_2_91 z_2_92 z_2_89 z_2_90)))
(assert
 (= z_0_144 (or z_2_144 z_2_145 z_2_91 z_2_92 z_2_89 z_2_90)))
(assert
 (= z_0_145 (or z_2_145 z_2_91 z_2_92 z_2_89 z_2_90)))
(assert
 (let (($x3268 (or z_2_146 z_2_147 z_2_148 z_2_135 z_2_136 z_2_114 z_2_115 z_2_116 z_2_113)))
 (= z_0_146 $x3268)))
(assert
 (let (($x3272 (or z_2_147 z_2_148 z_2_135 z_2_136 z_2_114 z_2_115 z_2_116 z_2_113)))
 (= z_0_147 $x3272)))
(assert
 (let (($x3276 (or z_2_148 z_2_135 z_2_136 z_2_114 z_2_115 z_2_116 z_2_113)))
 (= z_0_148 $x3276)))
(assert
 (let (($x3292 (or z_2_149 z_2_150 z_2_151 z_2_152 z_2_153 z_2_154 z_2_155 z_2_156 z_2_157 z_2_158 z_2_159 z_2_160)))
 (= z_0_149 $x3292)))
(assert
 (let (($x3294 (or z_2_150 z_2_151 z_2_152 z_2_153 z_2_154 z_2_155 z_2_156 z_2_157 z_2_158 z_2_159 z_2_160)))
 (= z_0_150 $x3294)))
(assert
 (let (($x3296 (or z_2_151 z_2_152 z_2_153 z_2_154 z_2_155 z_2_156 z_2_157 z_2_158 z_2_159 z_2_160)))
 (= z_0_151 $x3296)))
(assert
 (let (($x3298 (or z_2_152 z_2_153 z_2_154 z_2_155 z_2_156 z_2_157 z_2_158 z_2_159 z_2_160)))
 (= z_0_152 $x3298)))
(assert
 (let (($x3300 (or z_2_153 z_2_154 z_2_155 z_2_156 z_2_157 z_2_158 z_2_159 z_2_160)))
 (= z_0_153 $x3300)))
(assert
 (let (($x3302 (or z_2_154 z_2_155 z_2_156 z_2_157 z_2_158 z_2_159 z_2_160)))
 (= z_0_154 $x3302)))
(assert
 (let (($x3304 (or z_2_155 z_2_156 z_2_157 z_2_158 z_2_159 z_2_160)))
 (= z_0_155 $x3304)))
(assert
 (= z_0_156 (or z_2_156 z_2_157 z_2_158 z_2_159 z_2_160 z_2_155)))
(assert
 (= z_0_157 (or z_2_157 z_2_158 z_2_159 z_2_160 z_2_155 z_2_156)))
(assert
 (= z_0_158 (or z_2_158 z_2_159 z_2_160 z_2_155 z_2_156 z_2_157)))
(assert
 (= z_0_159 (or z_2_159 z_2_160 z_2_155 z_2_156 z_2_157 z_2_158)))
(assert
 (= z_0_160 (or z_2_160 z_2_155 z_2_156 z_2_157 z_2_158 z_2_159)))
(assert
 (let (($x3324 (or z_2_161 z_2_162 z_2_163 z_2_75 z_2_76 z_2_72 z_2_73 z_2_74)))
 (= z_0_161 $x3324)))
(assert
 (= z_0_162 (or z_2_162 z_2_163 z_2_75 z_2_76 z_2_72 z_2_73 z_2_74)))
(assert
 (= z_0_163 (or z_2_163 z_2_75 z_2_76 z_2_72 z_2_73 z_2_74)))
(assert
 (= z_0_164 (or z_2_164 z_2_112 z_2_113 z_2_114 z_2_115 z_2_116)))
(assert
 (and true true))
(assert
 (=> x_2_p z_2_0))
(assert
 (let (($x3364 (not z_2_1)))
 (=> x_2_p $x3364)))
(assert
 (let (($x3367 (not z_2_2)))
 (=> x_2_p $x3367)))
(assert
 (let (($x3370 (not z_2_3)))
 (=> x_2_p $x3370)))
(assert
 (=> x_2_p z_2_4))
(assert
 (=> x_2_p z_2_5))
(assert
 (=> x_2_p z_2_6))
(assert
 (=> x_2_p z_2_7))
(assert
 (=> x_2_p z_2_8))
(assert
 (let (($x3383 (not z_2_9)))
 (=> x_2_p $x3383)))
(assert
 (let (($x3386 (not z_2_10)))
 (=> x_2_p $x3386)))
(assert
 (let (($x3389 (not z_2_11)))
 (=> x_2_p $x3389)))
(assert
 (let (($x3392 (not z_2_12)))
 (=> x_2_p $x3392)))
(assert
 (=> x_2_p z_2_13))
(assert
 (let (($x3397 (not z_2_14)))
 (=> x_2_p $x3397)))
(assert
 (=> x_2_p z_2_15))
(assert
 (=> x_2_p z_2_16))
(assert
 (let (($x3404 (not z_2_17)))
 (=> x_2_p $x3404)))
(assert
 (let (($x3407 (not z_2_18)))
 (=> x_2_p $x3407)))
(assert
 (=> x_2_p z_2_19))
(assert
 (let (($x3412 (not z_2_20)))
 (=> x_2_p $x3412)))
(assert
 (=> x_2_p z_2_21))
(assert
 (=> x_2_p z_2_22))
(assert
 (=> x_2_p z_2_23))
(assert
 (=> x_2_p z_2_24))
(assert
 (let (($x3423 (not z_2_25)))
 (=> x_2_p $x3423)))
(assert
 (let (($x3426 (not z_2_26)))
 (=> x_2_p $x3426)))
(assert
 (let (($x3429 (not z_2_27)))
 (=> x_2_p $x3429)))
(assert
 (=> x_2_p z_2_28))
(assert
 (let (($x3434 (not z_2_29)))
 (=> x_2_p $x3434)))
(assert
 (=> x_2_p z_2_30))
(assert
 (=> x_2_p z_2_31))
(assert
 (=> x_2_p z_2_32))
(assert
 (let (($x3443 (not z_2_33)))
 (=> x_2_p $x3443)))
(assert
 (=> x_2_p z_2_34))
(assert
 (=> x_2_p z_2_35))
(assert
 (let (($x3450 (not z_2_36)))
 (=> x_2_p $x3450)))
(assert
 (=> x_2_p z_2_37))
(assert
 (let (($x3455 (not z_2_38)))
 (=> x_2_p $x3455)))
(assert
 (=> x_2_p z_2_39))
(assert
 (=> x_2_p z_2_40))
(assert
 (let (($x3462 (not z_2_41)))
 (=> x_2_p $x3462)))
(assert
 (=> x_2_p z_2_42))
(assert
 (let (($x3467 (not z_2_43)))
 (=> x_2_p $x3467)))
(assert
 (=> x_2_p z_2_44))
(assert
 (let (($x3472 (not z_2_45)))
 (=> x_2_p $x3472)))
(assert
 (let (($x3475 (not z_2_46)))
 (=> x_2_p $x3475)))
(assert
 (let (($x3478 (not z_2_47)))
 (=> x_2_p $x3478)))
(assert
 (let (($x3481 (not z_2_48)))
 (=> x_2_p $x3481)))
(assert
 (=> x_2_p z_2_49))
(assert
 (let (($x3486 (not z_2_50)))
 (=> x_2_p $x3486)))
(assert
 (let (($x3489 (not z_2_51)))
 (=> x_2_p $x3489)))
(assert
 (=> x_2_p z_2_52))
(assert
 (let (($x3494 (not z_2_53)))
 (=> x_2_p $x3494)))
(assert
 (=> x_2_p z_2_54))
(assert
 (=> x_2_p z_2_55))
(assert
 (=> x_2_p z_2_56))
(assert
 (=> x_2_p z_2_57))
(assert
 (let (($x3505 (not z_2_58)))
 (=> x_2_p $x3505)))
(assert
 (let (($x3508 (not z_2_59)))
 (=> x_2_p $x3508)))
(assert
 (let (($x3511 (not z_2_60)))
 (=> x_2_p $x3511)))
(assert
 (=> x_2_p z_2_61))
(assert
 (let (($x3516 (not z_2_62)))
 (=> x_2_p $x3516)))
(assert
 (let (($x3519 (not z_2_63)))
 (=> x_2_p $x3519)))
(assert
 (let (($x3522 (not z_2_64)))
 (=> x_2_p $x3522)))
(assert
 (=> x_2_p z_2_65))
(assert
 (=> x_2_p z_2_66))
(assert
 (=> x_2_p z_2_67))
(assert
 (let (($x3531 (not z_2_68)))
 (=> x_2_p $x3531)))
(assert
 (let (($x3534 (not z_2_69)))
 (=> x_2_p $x3534)))
(assert
 (=> x_2_p z_2_70))
(assert
 (let (($x3539 (not z_2_71)))
 (=> x_2_p $x3539)))
(assert
 (let (($x3542 (not z_2_72)))
 (=> x_2_p $x3542)))
(assert
 (=> x_2_p z_2_73))
(assert
 (let (($x3547 (not z_2_74)))
 (=> x_2_p $x3547)))
(assert
 (=> x_2_p z_2_75))
(assert
 (=> x_2_p z_2_76))
(assert
 (=> x_2_p z_2_77))
(assert
 (=> x_2_p z_2_78))
(assert
 (=> x_2_p z_2_79))
(assert
 (let (($x3560 (not z_2_80)))
 (=> x_2_p $x3560)))
(assert
 (=> x_2_p z_2_81))
(assert
 (let (($x3565 (not z_2_82)))
 (=> x_2_p $x3565)))
(assert
 (let (($x3568 (not z_2_83)))
 (=> x_2_p $x3568)))
(assert
 (=> x_2_p z_2_84))
(assert
 (=> x_2_p z_2_85))
(assert
 (=> x_2_p z_2_86))
(assert
 (=> x_2_p z_2_87))
(assert
 (let (($x3579 (not z_2_88)))
 (=> x_2_p $x3579)))
(assert
 (let (($x3582 (not z_2_89)))
 (=> x_2_p $x3582)))
(assert
 (let (($x3585 (not z_2_90)))
 (=> x_2_p $x3585)))
(assert
 (let (($x3588 (not z_2_91)))
 (=> x_2_p $x3588)))
(assert
 (=> x_2_p z_2_92))
(assert
 (=> x_2_p z_2_93))
(assert
 (let (($x3595 (not z_2_94)))
 (=> x_2_p $x3595)))
(assert
 (let (($x3598 (not z_2_95)))
 (=> x_2_p $x3598)))
(assert
 (=> x_2_p z_2_96))
(assert
 (=> x_2_p z_2_97))
(assert
 (=> x_2_p z_2_98))
(assert
 (=> x_2_p z_2_99))
(assert
 (let (($x3609 (not z_2_100)))
 (=> x_2_p $x3609)))
(assert
 (let (($x3612 (not z_2_101)))
 (=> x_2_p $x3612)))
(assert
 (let (($x3615 (not z_2_102)))
 (=> x_2_p $x3615)))
(assert
 (let (($x3618 (not z_2_103)))
 (=> x_2_p $x3618)))
(assert
 (=> x_2_p z_2_104))
(assert
 (=> x_2_p z_2_105))
(assert
 (let (($x3625 (not z_2_106)))
 (=> x_2_p $x3625)))
(assert
 (let (($x3628 (not z_2_107)))
 (=> x_2_p $x3628)))
(assert
 (=> x_2_p z_2_108))
(assert
 (let (($x3633 (not z_2_109)))
 (=> x_2_p $x3633)))
(assert
 (let (($x3636 (not z_2_110)))
 (=> x_2_p $x3636)))
(assert
 (let (($x3639 (not z_2_111)))
 (=> x_2_p $x3639)))
(assert
 (let (($x3642 (not z_2_112)))
 (=> x_2_p $x3642)))
(assert
 (=> x_2_p z_2_113))
(assert
 (let (($x3647 (not z_2_114)))
 (=> x_2_p $x3647)))
(assert
 (let (($x3650 (not z_2_115)))
 (=> x_2_p $x3650)))
(assert
 (=> x_2_p z_2_116))
(assert
 (let (($x3655 (not z_2_117)))
 (=> x_2_p $x3655)))
(assert
 (let (($x3658 (not z_2_118)))
 (=> x_2_p $x3658)))
(assert
 (=> x_2_p z_2_119))
(assert
 (=> x_2_p z_2_120))
(assert
 (=> x_2_p z_2_121))
(assert
 (=> x_2_p z_2_122))
(assert
 (=> x_2_p z_2_123))
(assert
 (=> x_2_p z_2_124))
(assert
 (let (($x3673 (not z_2_125)))
 (=> x_2_p $x3673)))
(assert
 (let (($x3676 (not z_2_126)))
 (=> x_2_p $x3676)))
(assert
 (=> x_2_p z_2_127))
(assert
 (=> x_2_p z_2_128))
(assert
 (let (($x3683 (not z_2_129)))
 (=> x_2_p $x3683)))
(assert
 (let (($x3686 (not z_2_130)))
 (=> x_2_p $x3686)))
(assert
 (let (($x3689 (not z_2_131)))
 (=> x_2_p $x3689)))
(assert
 (let (($x3692 (not z_2_132)))
 (=> x_2_p $x3692)))
(assert
 (let (($x3695 (not z_2_133)))
 (=> x_2_p $x3695)))
(assert
 (let (($x3698 (not z_2_134)))
 (=> x_2_p $x3698)))
(assert
 (=> x_2_p z_2_135))
(assert
 (let (($x3703 (not z_2_136)))
 (=> x_2_p $x3703)))
(assert
 (=> x_2_p z_2_137))
(assert
 (=> x_2_p z_2_138))
(assert
 (=> x_2_p z_2_139))
(assert
 (let (($x3712 (not z_2_140)))
 (=> x_2_p $x3712)))
(assert
 (let (($x3715 (not z_2_141)))
 (=> x_2_p $x3715)))
(assert
 (=> x_2_p z_2_142))
(assert
 (let (($x3720 (not z_2_143)))
 (=> x_2_p $x3720)))
(assert
 (let (($x3723 (not z_2_144)))
 (=> x_2_p $x3723)))
(assert
 (=> x_2_p z_2_145))
(assert
 (=> x_2_p z_2_146))
(assert
 (let (($x3730 (not z_2_147)))
 (=> x_2_p $x3730)))
(assert
 (=> x_2_p z_2_148))
(assert
 (let (($x3735 (not z_2_149)))
 (=> x_2_p $x3735)))
(assert
 (let (($x3738 (not z_2_150)))
 (=> x_2_p $x3738)))
(assert
 (=> x_2_p z_2_151))
(assert
 (let (($x3743 (not z_2_152)))
 (=> x_2_p $x3743)))
(assert
 (=> x_2_p z_2_153))
(assert
 (=> x_2_p z_2_154))
(assert
 (let (($x3750 (not z_2_155)))
 (=> x_2_p $x3750)))
(assert
 (let (($x3753 (not z_2_156)))
 (=> x_2_p $x3753)))
(assert
 (let (($x3756 (not z_2_157)))
 (=> x_2_p $x3756)))
(assert
 (=> x_2_p z_2_158))
(assert
 (=> x_2_p z_2_159))
(assert
 (let (($x3763 (not z_2_160)))
 (=> x_2_p $x3763)))
(assert
 (=> x_2_p z_2_161))
(assert
 (=> x_2_p z_2_162))
(assert
 (=> x_2_p z_2_163))
(assert
 (=> x_2_p z_2_164))
(assert
 (or x_2_p))
(assert
 (let (($x3359 (not x_2_->)))
 (let (($x3357 (not x_2_U)))
 (let (($x3355 (not x_2_v)))
 (let (($x3353 (not x_2_&)))
 (let (($x3351 (not x_2_X)))
 (let (($x3349 (not x_2_!)))
 (let (($x3347 (not x_2_F)))
 (let (($x3345 (not x_2_G)))
 (and $x3345 $x3347 $x3349 $x3351 $x3353 $x3355 $x3357 $x3359))))))))))
(check-sat)

